CMD:
./solvers/bin/cadical --plain --no-reduce -t 1600 ./data/cnfs//cal112/cal112.30.cnf

c --- [ banner ] -------------------------------------------------------------
c 
c CaDiCaL SAT Solver
c Copyright (c) 2016-2024
c A. Biere, M. Fleury, N. Froleyks, K. Fazekas, F. Pollitt, T. Faller
c JKU Linz, University of Freiburg, TU Wien
c 
c Version 2.1.3 5296d3d2a9bf48c154ab2acb5e44625776d821bf
c g++ (Gentoo 12.3.1_p20230526 p2) 12.3.1 20230526 -Wall -Wextra -O3 -DNDEBUG
c Sat Aug 9 07:26:21 PDT 2025 Linux cedar2.int.cedar.computecanada.ca 5.14.0-362.24.2.el9_3.x86_64 x86_64
c 
c --- [ limit ] --------------------------------------------------------------
c 
c setting time limit to 1600 seconds real time (due to '-t 1600')
c 
c --- [ parsing input ] ------------------------------------------------------
c 
c reading DIMACS file from './data/cnfs//cal112/cal112.30.cnf'
c opening file to read './data/cnfs//cal112/cal112.30.cnf'
c found 'p cnf 888714 2533294' header
c parsed 2533294 clauses in 0.44 seconds process time
c 
c --- [ options ] ------------------------------------------------------------
c 
c   --compact=false                (different from default 'true')
c   --decompose=false              (different from default 'true')
c   --deduplicate=false            (different from default 'true')
c   --elim=false                   (different from default 'true')
c   --probe=false                  (different from default 'true')
c   --reduce=false                 (different from default 'true')
c   --subsume=false                (different from default 'true')
c   --ternary=false                (different from default 'true')
c   --transred=false               (different from default 'true')
c   --vivify=false                 (different from default 'true')
c 
c --- [ solving ] ------------------------------------------------------------
c 
c time measured in process time since initialization
c 
c  seconds   reductions  redundant   irredundant
c          MB    restarts       trail        variables
c           level   conflicts       glue           remaining
c 
c *  0.44 381  0 0   0    0    0  0% 0 2369115 851557 96%
c {  0.45 382  0 0   0    0    0  0% 0 2369115 851557 96%
c i  0.47 382 708 0   3  106   84  7% 6 2369115 851553 96%
c i  1.62 393 12107 0  59  904  834 36% 3 2369115 851550 96%
c }  2.01 394 10969 0  76 1001  921 35% 3 2369115 851549 96%
c [  2.01 394  0 0  76 1001  921  0% 0 2369115 851549 96%
c O  2.04 394 1424 0  76 1002  922  7% 1 2369115 851549 96%
c ]  3.11 395 17751 0  77 3005 2662 56% 10 2369115 851549 96%
c {  3.11 395 10969 0  77 3005 2662 35% 3 2369115 851549 96%
c F  3.12 395 10957 0  78 3006 2663 35% 3 2369115 851549 96%
c i  3.70 395 8190 0 129 3342 2962 30% 4 2369115 851546 96%
c i  5.09 396 3612 0 254 5027 4506 20% 4 2369115 851544 96%
c #  6.08 396 2767 0 307 6009 5331 20% 4 2369115 851543 96%
c i  6.43 396 2637 0 324 6220 5522 21% 4 2369115 851540 96%
c }  6.75 397 2231 0 388 7006 6247 20% 4 2369115 851540 96%
c [  6.75 397 17751 0 388 7006 6247 56% 10 2369115 851540 96%
c i  7.02 397 16144 0 389 7206 6437 54% 10 2369115 851539 96%
c i  7.06 397 16044 0 389 7235 6457 55% 10 2369115 851538 96%
c i  7.08 397 16037 0 389 7242 6461 55% 10 2369115 851537 96%
c i  7.09 397 16025 0 389 7261 6477 55% 10 2369115 851536 96%
c 
c  seconds      reductions  redundant    irredundant
c          MB       restarts       trail         variables
c             level    conflicts       glue            remaining
c 
c i  7.12 397 16040 0 389 7295 6493 55% 10 2369115 851535 96%
c i  7.13 397 16063 0 389 7306 6501 55% 9 2369115 851534 96%
c i  7.17 397 16243 0 389 7356 6544 56% 9 2369115 851533 96%
c i  7.39 397 16737 0 389 7699 6861 58% 9 2369115 851518 96%
c i  7.40 397 16811 0 389 7711 6872 58% 9 2369115 851517 96%
c i  7.53 397 14237 0 389 8252 7352 57% 9 2369115 851499 96%
c i  7.88 397 11434 0 389 9069 8095 51% 10 2369115 851495 96%
c i  7.96 397 11199 0 389 9163 8177 51% 10 2369115 851493 96%
c I  8.15 398 9337 0 390 10010 8967 45% 12 2369115 851484 96%
c ]  8.37 399 4565 0 393 15008 13502 25% 10 2369115 851484 96%
c {  8.37 399 2231 0 393 15008 13502 20% 4 2369115 851484 96%
c B  8.38 399 2229 0 393 15012 13506 20% 4 2369115 851484 96%
c i 10.86 400 1545 0 738 17287 15600 17% 5 2369115 851481 96%
c W 14.05 400 1044 0 1153 21013 19039 15% 5 2330988 851479 96%
c i 14.05 400 1043 0 1153 21022 19044 15% 5 2330988 851477 96%
c i 14.30 400 1023 0 1168 21287 19283 15% 5 2330988 851476 96%
c i 14.76 400 899 0 1209 22987 20823 15% 5 2330988 851475 96%
c F 18.52 400 672 0 1583 28016 25395 15% 5 2330988 851475 96%
c i 19.43 400 638 0 1693 29172 26451 15% 5 2330988 851472 96%
c i 19.55 400 635 0 1700 29308 26580 15% 5 2330988 851469 96%
c 
c  seconds    reductions     redundant   irredundant
c          MB     restarts          trail        variables
c            level     conflicts        glue           remaining
c 
c i 19.58 400 635 0 1701 29323 26593 15% 5 2330988 851466 96%
c i 19.71 400 632 0 1704 29479 26728 15% 5 2330988 851463 96%
c i 20.20 400 615 0 1718 30127 27297 15% 5 2330988 851460 96%
c i 20.20 400 614 0 1718 30171 27336 16% 5 2330988 851458 96%
... skipped 335 lines ...
c i 1211.41 682 121 0 97175 1631407 986042 17% 11 2320468 849281 96%
c i 1219.52 682 121 0 97687 1635303 989596 17% 11 2320468 849278 96%
c i 1219.73 682 121 0 97692 1635536 989813 17% 11 2320468 849276 96%
c i 1232.39 682 120 0 98513 1642847 996543 17% 11 2320468 849272 96%
c i 1233.30 682 121 0 98522 1643815 997432 17% 11 2320468 849269 96%
c i 1246.14 682 121 0 99017 1653049 1005739 17% 11 2320468 849267 96%
c 
c   seconds     reductions         redundant     irredundant
c            MB      restarts              trail         variables
c              level       conflicts           glue            remaining
c 
c # 1246.16 682 121 0 99017 1653133 1005816 17% 11 2320468 849266 96%
c i 1264.68 682 127 0 99807 1665680 1017108 18% 11 2320468 849263 96%
c i 1264.82 682 127 0 99813 1665812 1017236 18% 11 2320468 849260 96%
c i 1265.02 682 127 0 99816 1666120 1017512 18% 11 2320468 849258 96%
c i 1301.40 682 128 0 102002 1686281 1036042 18% 11 2320468 849255 96%
c B 1343.91 682 116 0 104841 1711134 1056221 17% 11 2320468 849254 96%
c i 1344.42 682 117 0 104851 1711504 1056553 17% 11 2320468 849251 96%
c i 1364.78 686 114 0 105993 1730333 1070487 17% 11 2320468 849250 96%
c i 1364.82 686 115 0 105993 1730442 1070587 17% 11 2320468 849247 96%
c i 1391.61 691 122 0 107650 1747257 1086060 17% 11 2320468 849244 96%
c i 1403.55 692 123 0 108367 1753023 1091342 17% 11 2320468 849242 96%
c i 1413.59 694 123 0 108989 1757168 1095137 17% 11 2320468 849239 96%
c i 1428.93 696 123 0 109564 1768805 1105675 17% 11 2320468 849237 96%
c i 1429.49 697 129 0 109564 1769911 1106646 17% 11 2320468 849233 96%
c W 1430.47 717 129 0 109571 1770135 1106817 17% 11 2320155 849233 96%
c i 1453.98 718 129 0 110686 1784419 1119587 18% 11 2320155 849230 96%
c i 1460.30 718 130 0 110949 1788559 1123316 18% 11 2320155 849227 96%
c i 1476.29 718 130 0 111843 1794757 1129017 18% 11 2320155 849224 96%
c i 1478.19 718 131 0 111916 1795701 1129886 18% 11 2320155 849221 96%
c i 1491.71 718 133 0 112361 1808449 1141196 19% 11 2320155 849219 96%
c 
c   seconds     reductions          redundant     irredundant
c            MB      restarts               trail         variables
c              level        conflicts           glue            remaining
c 
c i 1491.71 718 133 0 112361 1808456 1141200 19% 11 2320155 849215 96%
c i 1509.68 719 132 0 113449 1815946 1148089 19% 11 2320155 849212 96%
c i 1509.69 719 132 0 113449 1816010 1148146 19% 11 2320155 849209 96%
c i 1509.78 719 134 0 113453 1816273 1148394 19% 11 2320155 849207 96%
c i 1530.16 719 133 0 114604 1828385 1159380 19% 11 2320155 849204 96%
c i 1530.16 719 133 0 114604 1828387 1159381 19% 11 2320155 849200 96%
c F 1533.75 719 133 0 114899 1830136 1160969 19% 11 2320155 849200 96%
c i 1559.28 719 131 0 116363 1842545 1172278 19% 11 2320155 849197 96%
c } 1587.88 721 134 0 117558 1859983 1188034 19% 11 2320155 849197 96%
c ? 1587.88 721 134 0 117558 1859983 1188034 19% 11 2320155 849197 96%
c 
c --- [ result ] -------------------------------------------------------------
c 
c UNKNOWN
c 
c --- [ run-time profiling ] -------------------------------------------------
c 
c process time taken by individual solving procedures
c (percentage relative to process time for solving)
c 
c      1587.44  100.00% search
c      1322.32   83.30% unstable
c       252.06   15.88% stable
c        13.05    0.82% walk
c         0.44    0.03% parse
c         0.01    0.00% lucky
c         0.00    0.00% simplify
c   =================================
c      1587.44   99.97% solve
c 
c last line shows process time for solving
c (percentage relative to total process time)
c 
c --- [ statistics ] ---------------------------------------------------------
c 
c chronological:            530395        28.52 %  of conflicts
c conflicts:               1859983      1171.69    per second
c decisions:              13587436      8559.34    per second
c fixed:                     39516         4.45 %  of all variables
c learned:                 1799517        96.75 %  per conflict
c learned_lits:          131202760       100.00 %  learned literals
c minimized:                     0         0.00 %  learned literals
c shrunken:               40385002        30.78 %  learned literals
c minishrunken:           30290035        23.09 %  learned literals
c otfs:                       6824         0.37 %  of conflict
c propagations:        12529457990         7.89 M  per second
c rephased:                     60     30999.72    interval
c restarts:                 117558        15.82    interval
c stabilizing:                   5        36.66 %  of conflicts
c subsumed:                 196794         4.72 %  of all clauses
c strengthened:               6543         0.16 %  of all clauses
c walked:                       19     97893.84    interval
c 
c seconds are measured in process time for solving
c 
c --- [ resources ] ----------------------------------------------------------
c 
c total process time since initialization:      1587.88    seconds
c total real time since initialization:         1600.01    seconds
c maximum resident set size of process:          949.31    MB
c 
c --- [ shutting down ] ------------------------------------------------------
c 
c exit 0
